Mack/Bortfeldt(2008)
Bin-Packing-Problem
BP-RG/SBSBPP/SSSCSP
Testcase-ID	3
Problem-ID	43
no_item_types	12
no_items	1279
CONTAINER_DATA (l,w,h)	485	131	118
ITEMS_DATA:
Type	x	y	z	no_items
1	103	63	58	115
2	106	61	56	94
3	102	78	39	111
4	71	68	64	103
5	85	67	39	102
6	97	81	27	111
7	100	56	35	89
8	113	46	36	124
9	91	50	40	127
10	75	57	41	106
11	66	50	42	89
12	101	30	26	108
